#-------------------------
#
#This script is used to create different concentrations of vacancies in thorium dioxide
#By Ziqiang Wang on 07/03/2023
#
#-------------------------

shell                        replace_file.sh
variable                     n       loop   15
label                        loop
clear
units                        metal
dimension                        3
boundary                     p p p
atom_style                   full
atom_modify                  map array

read_data                    add_Xe.dat

# randomly create vacancies in the relaxed perfect crystal
set                         type    1      charge   -1.1104
set                         type    2      charge    2.2208
set                         type    3      charge    0.0
kspace_style                pppm     1.0e-05
pair_style                  hybrid/overlay  coul/long   11.0  eam/alloy  table  linear  100000  pppm
pair_coeff                  * * coul/long
pair_coeff                  * * eam/alloy CeThUNpPuAmCmO.eam.alloy O Th NULL
pair_coeff                  3 3 table CRG_gas_potentials.lmptab Xe-Xe 11
pair_coeff                  1 3 table CRG_gas_potentials.lmptab Xe-O 11
pair_coeff                  2 3 table CRG_gas_potentials.lmptab Xe-Th 11
neighbor                    2.0  bin
neigh_modify                every  1  delay  0  check  yes

dump               1   all  custom  10000 dump_relax.atom.* id type q x y z
dump_modify        1   element  O Th Xe

min_style          cg
minimize           1.0e-30 1.0e-30 10000 10000
reset_atom_ids
variable           T     equal   600
velocity           all   create  $T  4111 dist gaussian mom yes rot yes
fix                nvt   all     nvt   temp  $T  $T  0.1   
run                10000
unfix              nvt
write_data         Xe_relaxed.dat
next               n
variable           tot    equal   17640+(${n}*4)
shell              add_Xe.sh ${tot}
jump               random_vac.in   loop
quit
